COMMENT : 101-city problem (Christofides/Eilon)
41 35 55 55 15 25 20 10 55 30 20 50 30 15 30 10 5 20 15 45 45 45 55 65 65 45 35 41 64 40 31 35 53 65 63 2 20 5 60 40 42 24 23 11 6 2 8 13 6 47 49 27 37 57 63 53 32 36 21 17 12 24 27 15 62 49 67 56 37 37 57 47 44 46 49 49 53 61 57 56 55 15 14 11 16 4 28 26 26 31 15 22 18 26 25 22 25 19 20 18 35
49 17 45 20 30 30 50 43 60 60 65 35 25 10 5 20 30 40 60 65 20 10 5 35 20 30 40 37 42 60 52 69 52 55 65 60 20 5 12 25 7 12 3 14 38 48 56 52 68 47 58 43 31 29 23 12 12 26 24 34 24 58 69 77 77 73 5 39 47 56 68 16 17 13 11 42 43 52 48 37 54 47 37 31 22 18 18 52 35 67 19 22 24 27 24 27 21 21 26 18 35
3041.34 2809.19 2802.73 2802.73 2698.22 2677.94 2566.05 2552.35 2381.41 2361.39 2342.73 2282.2 2282.2 2282.2 2242.17 2173.5 2173.5 2173.5 2126.79 2126.79 2104.29 2104.29 2104.29 2035.32 2035.32 1997.85 1957.43 1924.6 1923.82 1883.46 1862.09 1857.95 1837.41 1799.89 1799.89 1757.36 1757.36 1757.36 1746.68 1746.68 1715.18 1715.18 1656.46 1656.46 1656.46 1656.46 1652.11 1641.42 1641.42 1640.73 1640.73 1640.73 1640.73 1640.73 1640.73 1640.73 1640.73 1640.73 1640.73 1640.73 1640.73 1640.73 1640.73 1629.24 1629.24 1621.69 1621.69 1603.51 1603.51 1603.51 1603.51 1603.51 1603.51 1603.51 1603.51 1603.51 1603.51 1603.51 1603.51 1603.51 1603.51 1603.51 1603.51 1603.51 1603.51 1573.85 1573.85 1573.85 1523.88 1523.88 1515.26 1515.26 1515.26 1510.18 1510.18 1510.18 1510.18 1510.18 1492.42 1492.42 1492.42 1492.42 1492.42 1492.42 1492.42 1486.37 1486.37 1486.37 1467.3 1467.3 1467.3 1467.3 1461.09 1432.74 1431.8 1431.8 1429.43 1429.43 1429.43 1429.43 1429.43 1429.43 1429.43 1427.3 1427.3 1427.3 1427.3 1427.3 1427.3 1427.3 1424.72 1424.72 1405.99 1397.08 1397.08 1397.08 1395.48 1395.48 1391.97 1372.65 1372.65 1352.34 1352.34 1352.34 1352.34 1352.34 1352.34 1352.34 1352.34 1352.34 1352.34 1352.34 1352.34 1352.34 1352.34 1349 1346.55 1346.55 1346.55 1346.55 1346.55 1345.17 1345.17 1345.17 1345.17 1337.02 1337.02 1337.02 1337.02 1337.02 1337.02 1337.02 1337.02 1337.02 1337.02 1337.02 1312.51 1312.51 1312.51 1296.85 1296.85 1296.85 1296.85 1296.85 1282.14 1282.14 1282.14 1282.14 1282.14 1282.14 1282.14 1281.79 1281.79 1275.17 1275.17 1275.17 1275.17 1275.17 1275.17 1275.17 1275.17 1275.17 1275.17 1275.17 1274.17 1265.9 1260.35 1259.35 1259.35 1259.35 1259.35 1259.35 1259.35 1259.35 1259.35 1259.35 1259.35 1241.57 1241.57 1241.57 1241.57 1241.57 1241.57 1241.57 1237.32 1214.33 1214.33 1214.33 1214.33 1214.33 1214.33 1214.33 1214.33 1214.33 1214.33 1214.33 1214.33 1214.33 1214.33 1214.33 1209.43 1209.43 1209.43 1209.43 1209.43 1209.43 1209.43 1209.43 1209.43 1209.43 1179.53 1179.53 1179.53 1179.53 1179.53 1179.53 1179.53 1179.53 1179.53 1165.26 1156.61 1155.43 1155.43 1155.43 1149.78 1149.78 1149.78 1149.78 1149.78 1149.78 1149.78 1149.78 1149.78 1147.58 1147.58 1147.58 1147.58 1147.58 1147.58 1147.58 1147.58 1147.58 1147.58 1147.58 1147.58 1147.58 1147.58 1147.58 1147.58 1147.58 1147.58 1147.58 1147.58 1147.58 1127.76 1101.92 1099.47 1098.5 1087.33 1087.33 1087.33 1087.33 1087.33 1087.33 1087.33 1087.33 1087.33 1087.33 1087.33 1087.33 1087.33 1087.33 1087.33 1087.33 1087.33 1087.33 1087.33 1087.33 1087.33 1087.33 1087.33 1087.33 1087.33 1087.33 1087.33 1087.33 1087.33 1087.33 1087.33 1087.33 1087.33 1087.33 1087.33 1087.33 1087.33 1087.33 1087.33 1087.33 1087.33 1087.33 1087.33 1087.33 1087.33 1087.33 1081.12 1081.12 1081.12 1081.12 1081.12 1081.12 1081.12 1081.12 1081.12 1081.12 1081.12 1081.12 1081.12 1081.12 1076.39 1076.39 1076.39 1067.24 1067.24 1067.24 1067.24 1067.24 1067.24 1067.24 1067.24 1067.24 1067.24 1067.24 1067.24 1066.54 1066.54 1066.54 1066.54 1066.54 1066.54 1066.54 1066.54 1066.54 1066.54 1066.54 1066.54 1066.54 1066.54 1063.19 1002.46 1002.46 1002.46 1002.46 1002.46 1002.46 1002.46 1002.46 1002.46 1002.46 1002.46 1002.46 1002.46 1002.46 1002.46 1002.46 1002.46 1002.46 1000.79 1000.79 1000.79 996.05 996.05 996.05 996.05 996.05 993.45 993.45 993.45 988.748 988.748 985.544 985.544 985.544 985.544 981.704 981.704 981.704 981.704 981.704 981.704 981.704 981.704 978.624 978.624 978.624 978.624 978.624 978.624 977.607 972.296 972.296 972.296 972.296 972.296 972.296 972.296 972.296 972.296 972.296 972.296 972.296 972.296 972.296 967.26 967.26 967.26 967.26 967.26 967.26 967.26 967.26 967.26 967.26 967.26 967.26 967.26 967.26 967.26 967.26 967.26 967.26 967.26 967.26 967.26 967.26 967.26 967.26 967.26 967.26 967.26 967.26 967.26 967.26 967.26 967.26 967.26 967.26 967.26 967.26 965.301 965.301 965.301 965.301 965.301 965.301 965.301 965.301 965.301 965.301 965.301 965.301 965.026 965.026 965.026 961.805 961.805 946.558 946.558 946.558 946.558 946.558 946.558 946.558 946.558 946.558 946.558 946.558 944.93 944.073 944.073 944.073 941.276 941.276 941.276 941.276 941.276 941.276 941.276 941.276 941.276 941.276 941.276 941.276 941.276 941.276 941.276 941.276 941.276 941.276 941.276 941.276 941.276 941.276 941.276 941.276 941.276 941.276 941.276 933.829 933.829 933.829 933.829 933.829 933.829 931.869 931.869 931.869 931.869 931.869 931.869 931.869 931.869 931.869 931.869 931.869 931.869 931.869 931.869 931.869 931.869 931.869 931.869 931.869 931.869 931.869 931.869 931.869 931.869 931.869 931.869 931.869 931.869 931.869 931.869 931.869 931.869 931.869 931.869 931.869 931.869 931.869 931.869 929.092 929.092 929.092 929.092 929.092 929.092 929.092 929.092 929.092 929.092 929.092 929.092 929.092 929.092 929.092 929.092 929.092 929.092 929.092 929.092 929.092 929.092 929.092 929.092 929.092 929.092 929.092 929.092 929.092 929.092 929.092 929.092 929.092 929.092 929.092 929.092 929.092 929.092 929.092 929.092 929.092 929.092 929.092 929.092 929.092 928.62 928.62 928.62 928.62 928.62 928.62 926.154 926.154 926.154 926.154 926.154 926.154 926.154 926.154 926.154 926.154 926.154 926.154 926.154 926.154 926.154 926.154 926.154 926.154 926.154 926.154 926.154 926.154 926.154 926.154 926.154 926.154 926.154 926.154 926.154 921.19 921.19 921.19 921.19 921.19 921.19 921.19 921.19 921.19 921.19 921.19 921.19 921.19 921.19 921.19 921.19 921.19 921.19 921.19 921.19 921.19 918.548 918.548 918.548 918.548 918.548 918.548 918.548 918.548 918.548 911.698 911.698 911.698 911.698 911.698 911.698 911.698 911.698 911.698 911.698 911.698 911.698 911.698 911.698 911.698 911.698 911.698 911.698 911.698 911.698 911.698 911.698 911.698 911.698 911.698 911.698 911.698 911.698 911.698 911.698 911.698 911.698 911.698 911.698 911.698 911.698 911.698 911.698 911.698 911.698 911.698 911.698 911.698 911.698 911.698 903.625 903.625 903.625 903.625 903.625 903.625 903.625 903.625 903.625 903.625 903.625 903.625 903.625 903.625 903.625 903.625 903.625 903.625 896.61 896.61 896.61 896.61 896.61 896.61 896.61 896.61 896.61 896.61 896.61 896.61 896.61 896.61 896.61 896.61 896.61 896.61 896.61 896.61 896.61 896.61 896.61 896.61 896.61 896.61 896.61 896.61 896.61 896.61 896.61 896.61 896.61 896.61 896.61 896.61 896.61 896.61 896.61 896.61 896.61 896.61 896.61 896.61 896.61 896.61 896.61 896.61 896.306 896.306 896.306 886.225 886.225 886.225 886.225 886.225 886.225 886.225 886.225 886.225 886.225 886.225 886.225 886.225 881.197 881.197 881.197 881.197 881.197 881.197 881.197 881.197 881.197 881.197 881.197 881.197 881.197 881.197 881.197 881.197 881.197 881.197 881.197 881.197 881.197 881.197 881.197 881.197 881.197 881.197 881.197 881.197 881.197 881.197 881.197 881.197 881.197 881.197 881.197 881.197 881.197 875.843 875.843 875.843 874.619 874.619 874.619 874.619 874.619 874.619 874.619 874.619 874.619 874.619 874.619 874.619 874.619 874.619 874.619 874.619 874.619 874.619 874.619 874.619 874.619 874.619 874.619 874.619 874.619 874.619 874.619 874.619 874.619 874.619 871.643 871.643 871.643 871.643 871.643 871.643 871.643 867.201 867.201 867.201 867.201 867.201 866.258 866.258 866.258 866.258 866.258 866.258 866.258 866.258 866.258 866.258 866.258 866.258 866.258 866.258 866.258 866.258 866.258 866.258 866.258 866.258 866.258 866.258 864.677 864.677 864.677 864.677 864.677 864.677 864.677 864.677 864.677 864.677 864.677 864.677 864.677 864.677 864.677 864.677 864.677 864.677 859.385 859.385 859.385 859.385 859.385 859.385 859.385 859.385 859.385 859.385 859.385 859.385 859.385 859.385 859.385 859.385 859.385 859.385 859.385 859.385 859.385 859.385 859.385 859.385 859.385 859.385 859.385 859.385 859.385 859.385 859.385 859.385 859.385 859.385 859.385 859.385 859.385 859.385 855.131 855.131 855.131 855.131 855.131 855.131 855.131 855.131 855.131 855.131 855.131 855.131 855.131 855.131 855.131 855.131 855.131 855.131 855.131 855.131 855.131 855.131 855.131 855.131 855.131 855.131 855.131 855.131 855.131 855.131 855.131 855.131 855.131 855.131 855.131 855.131 855.131 855.131 855.131 855.131 855.131 855.131 855.131 855.131 855.131 855.131 853.171 853.171 853.171 853.171 853.171 853.171 853.171 853.171 853.171 853.171 853.171 853.171 853.171 853.171 853.171 853.171 853.171 853.171 853.171 853.171 853.171 853.171 853.171 853.171 853.171 853.171 853.171 853.171 853.171 853.171 853.171 853.171 853.171 853.171 853.171 853.171 853.171 853.171 853.171 851.552 851.552 851.552 851.552 851.552 851.552 851.552 851.552 851.552 851.552 851.552 851.552 851.552 851.552 851.552 851.552 851.552 851.552 851.552 851.552 849.58 849.58 849.58 849.58 849.58 849.58 849.58 849.58 849.58 849.58 849.58 849.58 849.58 849.58 849.58 849.58 849.58 849.58 849.58 849.58 849.58 849.58 849.58 849.58 849.58 849.58 849.58 849.58 849.58 849.58 849.58 849.58 849.58 849.58 849.58 849.58 849.58 849.58 849.58 849.58 849.58 849.58 849.58 849.58 849.58 849.58 849.58 849.58 849.58 849.58 849.58 849.58 849.58 849.58 849.58 849.58 849.58 849.58 849.58 849.58 849.58 849.58 849.58 849.58 849.58 849.58 849.58 849.58 849.58 849.58 849.58 849.58 849.58 849.58 849.58 849.58 849.58 849.58 849.58 849.58 849.58 849.58 849.58 849.58 849.58 849.58 849.58 849.58 849.58 849.58 849.58 849.58 849.58 849.58 849.58 849.58 849.58 849.58 849.58 849.58 849.58 849.58 849.58 849.58 849.58 849.58 849.58 849.58 849.58 849.58 849.58 849.58 849.58 849.58 849.58 849.58 849.58 849.58 849.58 849.58 849.58 849.58 849.58 849.58 849.58 849.58 849.58 849.58 849.58 849.58 849.58 849.58 849.58 849.58 849.494 849.494 849.494 849.494 849.494 849.494 849.494 849.494 849.494 849.494 849.494 848.604 848.604 848.604 848.604 848.604 848.604 848.604 848.604 848.604 848.604 848.604 848.604 848.604 848.604 848.604 848.604 848.604 848.604 848.604 848.604 848.604 848.604 848.604 848.604 848.604 848.604 848.604 848.604 848.604 848.604 848.604 848.604 848.604 848.604 848.604 848.604 848.604 848.604 848.604 848.604 848.604 848.604 848.604 848.604 848.604 848.604 848.604 848.604 848.604 848.604 848.604 848.604 848.604 848.604 848.604 848.604 848.604 848.604 848.604 848.604 848.604 848.604 848.604 848.604 848.604 848.604 848.604 848.604 848.604 848.604 848.604 848.604 848.604 848.604 848.604 848.604 848.604 848.604 848.604 848.604 848.604 848.604 848.604 848.604 848.604 848.604 848.604 848.604 848.604 848.604 848.604 848.604 848.604 848.604 848.604 848.604 848.604 848.604 848.604 848.604 848.604 848.604 848.604 848.604 848.604 848.604 848.604 848.604 848.604 848.604 848.604 848.604 848.604 848.604 848.604 848.604 848.604 848.604 848.604 848.604 848.604 848.604 848.604 848.604 848.604 848.604 848.604 848.604 848.604 848.604 848.604 848.604 848.604 848.604 848.604 848.604 848.604 848.604 848.604 848.604 848.604 848.604 848.604 848.604 848.604 848.604 848.604 848.604 848.604 848.604 848.604 848.604 848.604 848.604 848.604 848.604 848.604 848.604 848.604 848.604 848.604 848.604 848.604 848.604 848.604 848.604 848.604 848.604 848.604 848.604 848.604 848.604 848.604 848.604 848.604 848.604 848.604 848.604 848.604 848.604 848.604 848.604 848.604 848.604 848.604 848.604 848.604 848.604 848.604 848.604 848.604 848.604 848.604 848.604 848.604 848.604 848.604 848.604 848.604 848.604 848.604 848.604 848.604 847.258 847.258 847.258 847.258 847.258 847.258 847.258 847.258 847.258 847.258 847.258 847.258 847.258 847.258 847.258 847.258 847.258 847.258 846.48 846.48 839.507 839.507 839.507 839.507 839.507 839.507 839.507 839.507 839.507 839.507 839.507 839.507 839.507 839.507 839.507 839.507 839.507 839.507 839.507 839.507 839.507 839.507 839.507 839.507 839.507 839.507 839.507 839.507 839.507 839.507 839.507 839.507 839.507 839.507 839.507 839.507 839.507 839.507 839.507 839.507 839.507 839.507 839.507 839.507 839.507 839.507 839.507 839.507 839.507 839.507 839.507 839.507 839.507 839.507 839.507 839.507 839.507 839.507 839.507 839.507 839.507 839.507 839.507 839.507 839.507 839.507 839.507 839.507 839.507 839.507 839.507 839.507 839.507 839.507 839.507 839.507 839.507 839.507 839.507 839.507 839.507 839.507 839.507 839.507 839.507 839.507 839.507 839.507 839.507 839.507 839.507 839.507 839.507 839.507 839.507 839.507 839.507 839.507 838.728 838.728 838.728 833.895 833.895 833.895 833.895 833.895 833.895 833.895 833.895 833.895 833.895 833.895 833.895 833.764 833.764 833.764 833.764 833.764 833.764 833.764 833.764 833.764 833.764 833.764 833.764 833.764 833.764 833.764 833.764 833.764 833.764 833.764 833.764 833.764 833.764 832.941 832.941 832.941 832.941 832.941 832.941 832.941 832.941 832.941 832.941 832.941 832.941 832.941 832.941 832.941 832.941 832.941 832.941 832.941 832.941 832.941 832.941 832.941 832.941 832.941 832.941 832.811 820.1 820.1 820.1 820.1 820.1 820.1 820.1 820.1 820.1 820.1 820.1 820.1 820.1 820.1 820.1 820.1 820.1 820.1 820.1 820.1 819.969 819.969 819.969 819.969 819.969 819.969 819.969 819.969 819.969 819.969 819.61 819.61 819.61 819.61 819.61 819.61 819.61 819.61 816.945 816.945 806.739 806.739 806.739 806.739 806.739 806.249 806.249 806.249 806.249 806.249 806.249 806.249 806.249 806.249 806.249 806.249 806.249 806.249 806.249 806.249 806.249 806.249 806.249 806.249 806.249 806.249 806.249 806.249 806.249 806.249 806.249 806.249 806.249 806.249 806.249 806.249 806.249 806.249 806.249 806.249 806.249 806.249 806.249 806.249 806.249 806.249 806.249 806.249 806.249 806.249 806.249 806.249 806.249 806.249 806.249 806.249 806.249 806.249 806.249 806.249 806.249 806.249 806.249 806.249 806.249 806.249 806.249 806.249 806.249 806.249 806.249 806.249 806.249 806.249 806.249 806.249 806.249 806.249 806.249 806.249 806.249 806.249 806.249 806.249 806.249 806.249 806.249 806.249 806.249 806.249 806.249 806.249 806.249 806.249 806.249 806.249 806.249 806.249 806.249 806.249 806.249 806.249 806.249 806.249 806.249 806.249 806.249 806.249 806.249 806.249 806.249 806.249 806.249 806.249 806.249 806.249 806.249 806.249 806.249 806.249 806.249 806.249 806.249 802.089 802.089 802.089 802.089 802.089 802.089 802.089 802.089 802.089 802.089 802.089 802.089 802.089 802.089 802.089 802.089 802.089 802.089 802.089 802.089 802.089 802.089 802.089 802.089 802.089 802.089 802.089 802.089 802.089 802.089 802.089 802.089 802.089 802.089 802.089 802.089 802.089 802.089 802.089 795.56 795.56 795.56 795.56 795.56 795.56 795.56 795.56 795.56 795.56 795.56 795.56 795.56 795.56 795.56 795.56 795.56 795.56 795.56 795.56 795.56 795.56 795.56 795.56 795.56 795.56 795.56 795.56 795.56 795.56 795.56 795.56 795.56 795.56 795.56 795.56 795.56 795.56 795.56 795.56 795.56 795.56 795.56 795.56 795.56 795.56 795.56 795.56 795.56 795.56 795.56 795.56 795.56 795.56 795.56 795.56 795.56 795.56 795.56 795.56 795.56 795.56 795.56 795.56 795.56 795.56 795.56 795.56 795.56 795.56 795.56 795.56 795.56 795.56 795.56 795.56 795.56 795.56 795.56 795.56 795.56 795.56 795.56 795.56 795.56 795.56 795.56 795.56 795.56 795.56 795.56 795.56 795.56 795.56 795.56 795.56 795.56 795.56 795.56 795.56 795.56 795.56 795.56 795.56 795.56 795.56 795.56 795.56 795.56 795.56 795.56 795.56 795.56 795.56 795.56 795.56 795.56 795.56 795.56 795.56 795.56 795.56 795.56 795.56 795.56 795.56 795.56 795.56 795.56 795.56 795.56 795.56 795.56 795.56 795.56 795.56 795.56 795.56 795.56 795.56 795.56 795.56 795.56 795.56 795.56 795.56 795.56 795.56 795.56 795.56 795.56 795.56 795.56 795.56 795.56 795.56 795.56 795.56 795.56 795.56 794.823 792.445 790.485 790.485 790.485 790.485 790.485 790.485 790.485 790.485 790.485 790.485 790.485 790.485 790.485
2 58 53 27 52 18 45 46 8 48 82 83 17 84 60 5 61 16 91 37 92 99 96 59 93 85 98 100 14 44 86 38 43 42 57 15 41 74 73 22 75 56 4 55 25 67 39 23 72 21 40 26 28 101 12 24 54 68 80 29 79 34 78 65 35 71 66 20 51 9 81 33 3 77 76 50 69 1 30 70 10 32 90 63 11 19 36 47 49 64 62 31 88 7 89 6 94 13 95 97 87
1 69 27 101 53 28 26 12 80 68 29 24 54 55 25 4 39 67 23 56 75 41 22 74 72 73 21 40 58 13 94 95 97 87 2 57 15 43 42 14 44 38 86 16 61 85 91 100 98 37 92 59 93 99 96 6 89 52 18 83 60 5 84 17 45 8 46 47 36 49 64 63 90 32 10 62 11 19 48 82 7 88 31 70 30 20 66 71 65 35 34 78 81 9 51 33 79 3 77 76 50
